% seed = 0

mint = 28;
% maxt = 84;

nActs = 32;
dur = [0,2,2,2,3,4,1,1,1,1,1,6,1,4,6,2,2,5,5,3,2,2,3,2,3,3,2,2,3,5,5,0];

nSkills = 15;
sreq = [| 0,0,0,0,0,0,0,0,0,0,0,0,0,0,0,
	| 0,0,1,0,1,0,0,0,1,0,0,0,0,0,0,
	| 0,0,0,0,0,1,0,0,1,1,0,0,1,1,1,
	| 0,0,1,1,0,0,0,2,1,0,0,1,0,0,0,
	| 0,0,2,1,0,0,0,0,1,0,0,0,0,0,0,
	| 0,0,0,0,0,1,0,1,2,0,0,0,1,1,0,
	| 0,1,0,0,0,1,0,1,1,0,0,0,0,0,1,
	| 0,1,0,1,0,0,0,1,1,0,0,0,0,1,1,
	| 0,2,2,0,0,0,0,0,2,0,0,0,0,1,1,
	| 0,0,2,0,1,0,0,0,1,0,0,1,1,0,0,
	| 0,0,0,0,0,1,1,0,0,0,0,1,0,0,0,
	| 0,1,0,0,0,1,0,0,0,0,0,0,1,0,0,
	| 0,0,0,1,0,0,0,0,0,0,0,0,0,1,0,
	| 0,0,0,0,1,2,1,2,0,0,0,0,1,0,1,
	| 0,0,0,1,0,0,0,0,0,0,0,0,0,1,1,
	| 0,1,0,0,0,1,0,0,1,0,0,0,0,0,0,
	| 0,0,0,0,0,2,0,0,1,0,1,1,1,0,1,
	| 0,0,0,0,0,1,0,0,2,0,0,0,0,1,1,
	| 0,0,1,0,0,2,0,0,1,0,0,0,0,0,0,
	| 0,0,0,0,0,2,1,0,0,0,0,0,2,1,1,
	| 0,0,1,0,0,1,1,0,0,0,0,1,1,0,0,
	| 0,0,1,0,0,1,1,1,1,0,0,1,0,0,0,
	| 1,0,1,0,1,0,1,0,0,0,0,1,1,0,0,
	| 0,0,2,1,0,0,0,0,1,0,0,1,0,1,0,
	| 0,1,1,0,1,1,0,0,1,0,0,2,1,0,0,
	| 0,0,0,0,0,1,0,0,1,0,1,0,1,1,2,
	| 0,0,1,0,0,4,2,0,0,0,0,0,1,0,0,
	| 0,0,0,0,0,0,0,0,0,0,0,0,1,0,0,
	| 0,0,1,0,0,2,2,0,1,0,0,0,0,0,2,
	| 0,0,0,0,0,0,0,0,0,0,0,0,0,2,0,
	| 0,1,0,0,1,1,1,0,1,0,0,0,0,0,0,
	| 0,0,0,0,0,0,0,0,0,0,0,0,0,0,0, |];

% SumOfsreq = 157;

nResources = 24;
mastery = [| false,false,false,false,false,false,false,false,false,false,false,false,true,true,true,
	| false,false,false,false,false,false,false,false,false,false,false,false,true,true,true,
	| false,false,false,false,false,false,false,false,true,false,false,false,false,false,false,
	| false,false,false,false,false,false,false,false,false,true,true,true,false,false,false,
	| false,true,true,false,false,false,false,false,false,false,false,false,false,false,false,
	| true,true,true,false,false,false,false,false,false,false,false,false,true,true,true,
	| false,false,false,false,false,false,false,false,true,false,false,false,false,false,false,
	| false,false,false,false,false,false,false,false,false,false,false,false,false,false,true,
	| false,false,false,false,true,true,false,false,false,false,false,false,false,false,false,
	| false,false,false,false,false,false,false,false,false,false,false,true,false,false,false,
	| false,false,false,false,false,true,false,false,false,false,false,false,false,false,false,
	| false,false,false,false,false,false,true,true,true,false,false,false,false,false,false,
	| false,false,false,false,false,false,true,true,true,false,false,false,false,false,false,
	| false,false,false,false,false,false,false,false,false,false,false,false,false,false,true,
	| false,false,true,false,false,false,false,false,false,false,false,false,false,false,false,
	| false,false,false,false,false,false,true,true,true,false,true,true,false,false,false,
	| false,false,false,false,false,true,false,false,false,false,false,false,false,false,false,
	| false,false,true,false,false,false,false,false,false,false,false,false,false,false,false,
	| false,false,false,false,false,false,false,false,false,false,false,false,true,true,true,
	| false,false,false,true,true,true,false,false,true,false,false,false,false,false,false,
	| false,true,true,false,false,false,false,false,false,false,false,false,false,false,false,
	| false,false,false,false,false,false,false,true,true,false,false,true,false,false,false,
	| false,false,false,true,true,true,false,false,false,false,false,false,false,true,true,
	| false,false,false,false,false,false,false,false,false,false,false,false,false,true,true, |];

nPrecs = 68;
pred = [1,1,1,2,2,2,3,3,3,4,4,4,5,5,5,6,6,7,7,7,8,8,9,9,9,10,10,11,11,11,12,12,12,13,13,13,14,14,14,15,15,15,16,17,18,18,18,19,19,19,20,20,21,21,21,22,22,23,23,24,25,25,26,27,28,29,30,31];
succ = [2,3,4,5,14,8,22,31,8,10,11,6,12,6,7,19,27,23,15,16,9,25,17,24,16,12,13,17,27,20,18,19,21,18,20,15,23,15,16,17,19,21,30,29,26,31,23,25,22,31,21,22,25,29,24,26,24,27,28,28,26,28,30,29,30,32,32,32];

nUnrels = 190;
unpred = [2,2,2,2,2,2,3,3,3,3,3,3,3,3,3,3,3,3,3,3,3,3,4,4,4,4,4,4,5,5,5,5,5,5,5,6,6,6,6,6,6,6,6,6,6,6,6,6,6,6,7,7,7,7,7,7,7,7,7,8,8,8,8,8,8,8,8,8,8,8,8,8,8,9,9,9,9,9,9,9,9,9,9,9,9,9,9,9,9,10,10,10,11,11,11,11,11,11,11,11,11,12,12,12,12,12,12,13,13,14,14,15,15,15,15,15,16,16,16,16,16,16,16,16,16,16,16,16,16,16,17,17,17,17,17,17,17,17,17,17,17,17,17,18,18,18,18,18,18,19,19,19,19,19,20,20,20,21,21,21,21,22,22,22,22,22,23,23,23,23,24,24,24,24,24,25,25,25,26,26,26,26,27,27,27,28,28,29,29,30];
unsucc = [3,4,10,11,13,20,4,5,6,7,10,11,12,13,14,15,18,19,20,21,23,27,5,7,8,9,14,16,8,9,10,11,13,14,20,7,8,9,10,11,12,13,14,15,16,17,18,20,21,23,8,9,10,11,12,13,14,18,20,10,11,12,13,14,15,18,19,20,21,22,23,27,31,10,11,12,13,14,15,18,19,20,21,22,23,25,26,27,31,11,14,16,12,13,14,15,16,18,19,23,31,13,14,15,16,17,20,14,16,18,20,16,18,20,23,27,17,18,19,20,21,22,23,24,25,26,27,28,29,31,18,19,20,21,22,23,24,25,26,27,28,30,31,19,20,21,22,24,25,20,21,23,27,29,23,27,31,22,23,27,31,23,25,27,29,31,24,25,26,31,25,26,27,29,31,27,29,31,27,28,29,31,28,30,31,29,31,30,31,31];

USEFUL_RES = [{},
	{3,5,6,7,9,12,13,15,16,18,20,21,22,23},
	{1,2,3,4,6,7,8,9,11,12,13,14,16,17,19,20,22,23,24},
	{3,4,5,6,7,10,12,13,15,16,18,20,21,22,23},
	{3,5,6,7,12,13,15,16,18,20,21,22,23},
	{1,2,3,6,7,9,11,12,13,16,17,19,20,22,23,24},
	{1,2,3,5,6,7,8,9,11,12,13,14,16,17,19,20,21,22,23,24},
	{1,2,3,5,6,7,8,12,13,14,16,19,20,21,22,23,24},
	{1,2,3,5,6,7,8,12,13,14,15,16,18,19,20,21,22,23,24},
	{1,2,3,4,5,6,7,9,10,12,13,15,16,18,19,20,21,22,23},
	{4,9,10,11,12,13,16,17,20,22,23},
	{1,2,5,6,9,11,17,19,20,21,23},
	{1,2,6,19,20,23,24},
	{1,2,6,8,9,11,12,13,14,16,17,19,20,22,23,24},
	{1,2,6,8,14,19,20,23,24},
	{3,5,6,7,9,11,12,13,16,17,20,21,22,23},
	{1,2,3,4,6,7,8,9,10,11,12,13,14,16,17,19,20,22,23,24},
	{1,2,3,6,7,8,9,11,12,13,14,16,17,19,20,22,23,24},
	{3,5,6,7,9,11,12,13,15,16,17,18,20,21,22,23},
	{1,2,6,8,9,11,12,13,14,16,17,19,20,23,24},
	{1,2,4,5,6,9,10,11,12,13,15,16,17,18,19,20,21,22,23},
	{3,4,5,6,7,9,10,11,12,13,15,16,17,18,20,21,22,23},
	{1,2,4,5,6,9,10,12,13,15,16,18,19,20,21,22,23},
	{1,2,3,4,5,6,7,10,12,13,15,16,18,19,20,21,22,23,24},
	{1,2,3,4,5,6,7,9,10,11,12,13,15,16,17,18,19,20,21,22,23},
	{1,2,3,4,6,7,8,9,11,12,13,14,16,17,19,20,22,23,24},
	{1,2,5,6,9,11,12,13,15,16,17,18,19,20,21,23},
	{1,2,6,19},
	{1,2,3,5,6,7,8,9,11,12,13,14,15,16,17,18,19,20,21,22,23,24},
	{1,2,6,19,23,24},
	{3,5,6,7,9,11,12,13,16,17,20,21,22,23},
	{}];

POTENTIAL_ACT = [{3,6,7,8,9,10,12,13,14,15,17,18,20,21,23,24,25,26,27,28,29,30},
	{3,6,7,8,9,10,12,13,14,15,17,18,20,21,23,24,25,26,27,28,29,30},
	{2,3,4,5,6,7,8,9,10,16,17,18,19,22,24,25,26,29,31},
	{3,4,10,11,17,21,22,23,24,25,26},
	{2,4,5,7,8,9,10,12,16,19,21,22,23,24,25,27,29,31},
	{2,3,4,5,6,7,8,9,10,12,13,14,15,16,17,18,19,20,21,22,23,24,25,26,27,28,29,30,31},
	{2,3,4,5,6,7,8,9,10,16,17,18,19,22,24,25,26,29,31},
	{3,7,8,9,14,15,17,18,20,26,29},
	{2,3,6,7,10,11,12,14,16,17,18,19,20,21,22,23,25,26,27,29,31},
	{4,10,11,17,21,22,23,24,25},
	{3,6,7,11,12,14,16,17,18,19,20,21,22,25,26,27,29,31},
	{2,3,4,5,6,7,8,9,10,11,14,16,17,18,19,20,21,22,23,24,25,26,27,29,31},
	{2,3,4,5,6,7,8,9,10,11,14,16,17,18,19,20,21,22,23,24,25,26,27,29,31},
	{3,7,8,9,14,15,17,18,20,26,29},
	{2,4,5,9,10,19,21,22,23,24,25,27,29},
	{2,3,4,5,6,7,8,9,10,11,14,16,17,18,19,20,21,22,23,24,25,26,27,29,31},
	{3,6,7,11,12,14,16,17,18,19,20,21,22,25,26,27,29,31},
	{2,4,5,9,10,19,21,22,23,24,25,27,29},
	{3,6,7,8,9,10,12,13,14,15,17,18,20,21,23,24,25,26,27,28,29,30},
	{2,3,4,5,6,7,8,9,10,11,12,13,14,15,16,17,18,19,20,21,22,23,24,25,26,27,29,31},
	{2,4,5,7,8,9,10,12,16,19,21,22,23,24,25,27,29,31},
	{2,3,4,5,6,7,8,9,10,11,14,16,17,18,19,21,22,23,24,25,26,29,31},
	{2,3,4,5,6,7,8,9,10,11,12,13,14,15,16,17,18,19,20,21,22,23,24,25,26,27,29,30,31},
	{3,6,7,8,9,13,14,15,17,18,20,24,26,29,30}];
